db/data/317311004917725262872900829639925013554.z3.out
sat
-------------------
25.003636283
